networks/zoo_32_144/zoo_32_144.sol
<?xml version = "1.0" encoding="UTF-8" standalone="yes"?>
<CPLEXSolution version="1.2">
 <header
   problemName="networks/zoo_32_144/zoo_32_144.lp"
   solutionName="incumbent"
   solutionIndex="-1"
   objectiveValue="19"
   solutionTypeValue="3"
   solutionTypeString="primal"
   solutionStatusValue="101"
   solutionStatusString="integer optimal solution"
   solutionMethodString="mip"
   primalFeasible="1"
   dualFeasible="1"
   MIPNodes="748"
   MIPIterations="34666"
   writeLevel="3"/>
 <quality
   epInt="1.0000000000000001e-05"
   epRHS="9.9999999999999995e-07"
   maxIntInfeas="0"
   maxPrimalInfeas="0"
   maxX="4"
   maxSlack="10"/>
 <variables>
  <variable name="Y(5,8)" index="135" value="1"/>
  <variable name="Y(13,4)" index="387" value="1"/>
  <variable name="Y(15,10)" index="457" value="1"/>
  <variable name="Y(17,6)" index="517" value="1"/>
  <variable name="Y(19,8)" index="583" value="1"/>
  <variable name="Y(28,5)" index="868" value="1"/>
  <variable name="Y(38,15)" index="1198" value="1"/>
  <variable name="Y(51,14)" index="1613" value="1"/>
  <variable name="Y(61,1)" index="1920" value="1"/>
  <variable name="Y(62,2)" index="1953" value="1"/>
  <variable name="Y(66,7)" index="2086" value="1"/>
  <variable name="Y(74,8)" index="2343" value="1"/>
  <variable name="Y(79,12)" index="2507" value="1"/>
  <variable name="Y(87,9)" index="2760" value="1"/>
  <variable name="Y(93,3)" index="2946" value="1"/>
  <variable name="Y(111,16)" index="3535" value="1"/>
  <variable name="Y(118,11)" index="3754" value="1"/>
  <variable name="Y(138,7)" index="4390" value="1"/>
  <variable name="Y(143,13)" index="4556" value="1"/>
  <variable name="X(1,4,13)" index="4620" value="1"/>
  <variable name="X(1,16,62)" index="4813" value="1"/>
  <variable name="X(1,17,61)" index="4956" value="1"/>
  <variable name="X(2,16,13)" index="5052" value="1"/>
  <variable name="X(2,18,62)" index="5245" value="1"/>
  <variable name="X(3,4,17)" index="5344" value="1"/>
  <variable name="X(3,8,19)" index="5490" value="1"/>
  <variable name="X(3,19,93)" index="5708" value="1"/>
  <variable name="X(4,1,61)" index="5820" value="1"/>
  <variable name="X(4,3,93)" index="5996" value="1"/>
  <variable name="X(4,5,17)" index="6064" value="1"/>
  <variable name="X(4,7,51)" index="6242" value="1"/>
  <variable name="X(4,8,5)" index="6340" value="1"/>
  <variable name="X(4,20,13)" index="6492" value="1"/>
  <variable name="X(5,4,51)" index="6674" value="1"/>
  <variable name="X(5,6,17)" index="6784" value="1"/>
  <variable name="X(5,21,28)" index="6939" value="1"/>
  <variable name="X(6,22,17)" index="7072" value="1"/>
  <variable name="X(7,4,93)" index="7292" value="1"/>
  <variable name="X(7,8,138)" index="7481" value="1"/>
  <variable name="X(7,10,15)" index="7502" value="1"/>
  <variable name="X(7,14,51)" index="7682" value="1"/>
  <variable name="X(7,23,66)" index="7841" value="1"/>
  <variable name="X(8,3,74)" index="7993" value="1"/>
  <variable name="X(8,4,61)" index="8124" value="1"/>
  <variable name="X(8,7,66)" index="8273" value="1"/>
  <variable name="X(8,9,19)" index="8370" value="1"/>
  <variable name="X(8,24,5)" index="8500" value="1"/>
  <variable name="X(9,8,74)" index="8713" value="1"/>
  <variable name="X(9,10,79)" index="8862" value="1"/>
  <variable name="X(9,25,87)" index="9014" value="1"/>
  <variable name="X(10,7,93)" index="9164" value="1"/>
  <variable name="X(10,9,87)" index="9302" value="1"/>
  <variable name="X(10,11,79)" index="9438" value="1"/>
  <variable name="X(10,26,15)" index="9518" value="1"/>
  <variable name="X(11,10,93)" index="9740" value="1"/>
  <variable name="X(11,12,79)" index="9870" value="1"/>
  <variable name="X(11,27,118)" index="10053" value="1"/>
  <variable name="X(12,11,118)" index="10197" value="1"/>
  <variable name="X(12,13,111)" index="10334" value="1"/>
  <variable name="X(12,28,79)" index="10446" value="1"/>
  <variable name="X(13,12,118)" index="10629" value="1"/>
  <variable name="X(13,14,111)" index="10766" value="1"/>
  <variable name="X(13,29,143)" index="10942" value="1"/>
  <variable name="X(14,7,15)" index="10958" value="1"/>
  <variable name="X(14,13,143)" index="11230" value="1"/>
  <variable name="X(14,15,38)" index="11269" value="1"/>
  <variable name="X(14,16,111)" index="11486" value="1"/>
  <variable name="X(14,30,51)" index="11570" value="1"/>
  <variable name="X(15,14,143)" index="11806" value="1"/>
  <variable name="X(15,31,38)" index="11845" value="1"/>
  <variable name="X(16,1,13)" index="11964" value="1"/>
  <variable name="X(16,2,62)" index="12157" value="1"/>
  <variable name="X(16,14,15)" index="12254" value="1"/>
  <variable name="X(16,32,111)" index="12494" value="1"/>
  <variable name="C(5,8)" index="12542" value="1"/>
  <variable name="C(13,16)" index="12571" value="1"/>
  <variable name="C(13,1)" index="12572" value="2"/>
  <variable name="C(13,4)" index="12573" value="3"/>
  <variable name="C(15,14)" index="12581" value="1"/>
  <variable name="C(15,7)" index="12582" value="2"/>
  <variable name="C(15,10)" index="12583" value="3"/>
  <variable name="C(17,4)" index="12587" value="1"/>
  <variable name="C(17,5)" index="12588" value="2"/>
  <variable name="C(17,6)" index="12589" value="3"/>
  <variable name="C(19,8)" index="12593" value="1"/>
  <variable name="C(38,15)" index="12661" value="1"/>
  <variable name="C(51,4)" index="12706" value="1"/>
  <variable name="C(51,7)" index="12707" value="2"/>
  <variable name="C(51,14)" index="12708" value="3"/>
  <variable name="C(61,4)" index="12736" value="1"/>
  <variable name="C(61,1)" index="12737" value="2"/>
  <variable name="C(62,16)" index="12741" value="1"/>
  <variable name="C(62,2)" index="12742" value="2"/>
  <variable name="C(66,7)" index="12752" value="1"/>
  <variable name="C(74,8)" index="12779" value="1"/>
  <variable name="C(79,10)" index="12792" value="1"/>
  <variable name="C(79,11)" index="12793" value="2"/>
  <variable name="C(79,12)" index="12794" value="3"/>
  <variable name="C(87,9)" index="12823" value="1"/>
  <variable name="C(93,10)" index="12843" value="1"/>
  <variable name="C(93,7)" index="12844" value="2"/>
  <variable name="C(93,4)" index="12845" value="3"/>
  <variable name="C(93,3)" index="12846" value="4"/>
  <variable name="C(111,13)" index="12914" value="1"/>
  <variable name="C(111,14)" index="12915" value="2"/>
  <variable name="C(111,16)" index="12916" value="3"/>
  <variable name="C(118,12)" index="12946" value="1"/>
  <variable name="C(118,11)" index="12947" value="2"/>
  <variable name="C(143,14)" index="13034" value="1"/>
  <variable name="C(143,13)" index="13035" value="2"/>
 </variables>
</CPLEXSolution>
